20 10 133

0 0 30712
0 1 30889
0 2 29782
0 3 28416
0 4 27222
1 0 29094
1 1 30430
1 2 30991
1 3 30130
1 4 28762
1 5 27514
2 0 29529
2 1 30746
2 2 30844
2 3 29705
2 4 28346
2 5 27164
3 0 27684
3 1 28962
3 2 30319
3 3 31011
3 4 30261
3 5 28898
3 6 27629
4 0 27502
4 1 28749
4 2 30120
4 3 30996
4 4 30449
4 5 29113
4 6 27814
4 7 26720
5 0 27477
5 1 28717
5 2 30083
5 3 30974
5 4 30458
5 5 29132
5 6 27833
5 7 26737
6 0 27131
6 1 28307
6 2 29663
6 3 30825
6 4 30774
6 5 29573
6 6 28223
6 7 27062
7 1 27511
7 2 28757
7 3 30118
7 4 30971
7 5 30412
7 6 29083
7 7 27792
7 8 26703
8 1 26867
8 2 27989
8 3 29313
8 4 30604
8 5 30941
8 6 29923
8 7 28553
8 8 27337
9 3 27220
9 4 28413
9 5 29777
9 6 30882
9 7 30706
9 8 29460
9 9 28121
10 1 27526
10 2 28726
10 3 29966
10 4 30626
10 5 30042
10 6 28815
10 7 27604
11 1 26712
11 2 27785
11 3 29037
11 4 30274
11 5 30727
11 6 29901
11 7 28609
11 8 27410
12 3 27171
12 4 28351
12 5 29699
12 6 30813
12 7 30696
12 8 29487
12 9 28154
13 4 26596
13 5 27663
13 6 28936
13 7 30289
13 8 30997
13 9 30269
14 5 27303
14 6 28509
14 7 29869
14 8 30896
14 9 30599
15 5 27615
15 6 28882
15 7 30246
15 8 31010
15 9 30333
16 4 26865
16 5 27988
16 6 29310
16 7 30599
16 8 30937
16 9 29921
17 5 27558
17 6 28811
17 7 30170
17 8 30977
17 9 30363
18 5 27261
18 6 28463
18 7 29831
18 8 30908
18 9 30675
19 1 26760
19 2 27852
19 3 29134
19 4 30405
19 5 30844
19 6 29950
19 7 28619
19 8 27406
