5
10 9 4
2 8 9
6 7 4
0 6 2
2 3 7
0 1 9
1 6 1
1 4 7
1 3 8
2 4 9
3 7
4 3
3 5
8 7
4 6 2
1 3 9
2 3 7
1 2 8
0 2 0
0 1 7
0 3 6
1 2
3 0
5 10 5
0 4 19
0 1 21
2 4 13
0 3 85
1 4 59
2 3 93
0 2 66
1 2 70
3 4 42
1 3 39
2 4
2 0
2 0
4 2
4 3
10 15 10
1 8 41
0 6 69
3 9 38
0 8 89
2 3 19
3 5 87
0 7 83
1 4 10
0 9 88
1 5 93
5 8 16
2 5 65
1 9 57
5 7 40
6 8 42
2 1
1 3
4 2
7 1
2 9
4 5
1 9
8 1
1 7
2 9
10 15 10
3 4 98
4 7 85
5 9 73
0 4 60
0 3 37
0 7 51
8 9 56
7 8 95
3 5 11
3 7 43
2 3 23
2 8 87
2 7 86
2 9 26
1 7 0
1 9
5 9
6 2
9 6
4 7
4 0
9 8
1 5
2 3
2 8
