20 10 124
0 0 38014.999350
0 1 38237.059764
0 2 36515.896716
0 3 34346.845553
0 4 33842.640613
1 0 35978.169733
1 1 37670.079386
1 2 37700.526827
1 3 37619.198284
1 4 35542.253826
1 5 33973.380448
2 0 36235.791345
2 1 37803.686520
2 2 38188.076214
2 3 36957.002358
2 4 34694.140439
2 5 33536.353606
3 0 33875.687259
3 1 36159.904675
3 2 37734.041187
3 3 38599.378158
3 4 37097.316646
3 5 36122.800161
3 6 34489.954937
4 0 33971.931379
4 1 35936.882042
4 2 37276.131353
4 3 38580.812928
4 4 36907.047049
4 5 36345.565185
4 6 34721.032444
5 0 34171.868833
5 1 35221.107126
5 2 36604.217162
5 3 38564.361882
5 4 37373.671683
5 5 36005.503455
5 6 34037.627501
5 7 33236.029169
6 1 34994.208423
6 2 37038.653800
6 3 37901.793737
6 4 37792.673902
6 5 36921.127377
6 6 34525.887385
6 7 33641.446811
7 1 34216.956774
7 2 35945.720595
7 3 37609.766441
7 4 38676.036339
7 5 37843.223606
7 6 35166.573615
7 7 34318.564545
8 2 34813.031109
8 3 36251.757556
8 4 37181.721973
8 5 37964.498266
8 6 37358.178697
8 7 35270.486505
8 8 34171.385115
9 4 35516.183949
9 5 36563.689849
9 6 38439.689130
9 7 37227.533560
9 8 36072.114492
9 9 34733.000760
10 1 34254.304894
10 2 35907.230267
10 3 36739.226783
10 4 38173.584889
10 5 36977.504830
10 6 35628.685039
10 7 34095.711261
11 1 33389.855816
11 2 34577.903483
11 3 36296.997813
11 4 37719.926334
11 5 38123.319749
11 6 37213.689812
11 7 35581.581673
11 8 34078.253614
12 3 33923.330251
12 4 34438.433980
12 5 36973.320542
12 6 38365.822241
12 7 37671.328680
12 8 36441.646839
12 9 35145.949406
13 5 34188.907932
13 6 35471.356199
13 7 37689.689567
13 8 38565.301563
13 9 37650.471219
14 5 34129.346399
14 6 35593.758590
14 7 37293.034689
14 8 38439.299389
14 9 38063.205049
15 5 34354.028506
15 6 36061.760458
15 7 37807.165151
15 8 38719.438480
15 9 37497.664908
16 5 34943.984284
16 6 35599.544591
16 7 37591.556909
16 8 38497.139685
16 9 36982.731564
17 5 34285.152586
17 6 35665.384354
17 7 37674.462770
17 8 38680.111506
17 9 37216.016222
18 6 35204.155458
18 7 36913.956626
18 8 38461.506260
18 9 38159.045253
19 2 34156.916516
19 3 35808.990984
19 4 37697.493029
19 5 38235.620521
19 6 36739.764005
19 7 35035.458860
19 8 33499.960959
